SAT
-44 -77 120 5 89 -63 119 17 -69 38 72 -53 -13 85 -15 49 99 54 -83 47 113 104 64 -67 -21 76 91 -14 -34 108 114 -79 -95 117 -56 52 61 -25 23 -6 111 -31 12 40 -101 107 37 -86 -100 -62 78 -65 118 106 50 10 102 -27 -110 16 -45 22 -18 105 -81 -24 -7 -3 82 9 -35 84 125 32 -55 -29 59 -51 109 -123 -20 -58 -42 -115 121 98 -112 33 -124 -28 -70 -80 -2 41 -26 74 46 -88 -8 90 -60 1 36 94 116 4 30 -66 103 -96 -48 93 -73 39 57 -92 97 -122 -71 -68 11 -75 87 -43 19 0
